33D32945 STP File, STP Format Version 1.0

SECTION Comment
Name "i640-303-PCST"
Creator "Indaco Biazzo" 
Remark "derived from Incidence graph by Cees Duin"
END

SECTION Graph
Nodes 640
Edges 960
E 1 28 297.000000
E 1 29 301.000000
E 1 59 303.000000
E 1 263 195.000000
E 1 326 196.000000
E 1 523 197.000000
E 2 29 302.000000
E 2 429 197.000000
E 2 458 199.000000
E 2 598 194.000000
E 3 360 200.000000
E 4 372 212.000000
E 4 419 189.000000
E 5 434 190.000000
E 6 224 195.000000
E 6 418 210.000000
E 6 543 201.000000
E 7 190 208.000000
E 7 207 196.000000
E 7 209 199.000000
E 7 479 199.000000
E 7 571 202.000000
E 7 584 205.000000
E 7 608 193.000000
E 8 133 309.000000
E 8 486 198.000000
E 9 435 188.000000
E 9 483 203.000000
E 10 338 201.000000
E 11 75 302.000000
E 11 402 204.000000
E 11 580 198.000000
E 12 18 296.000000
E 12 427 202.000000
E 12 596 209.000000
E 13 240 196.000000
E 13 462 203.000000
E 13 529 206.000000
E 14 304 197.000000
E 14 519 196.000000
E 15 218 200.000000
E 15 368 200.000000
E 16 272 196.000000
E 16 297 202.000000
E 16 342 199.000000
E 16 514 201.000000
E 16 521 198.000000
E 16 577 194.000000
E 16 585 201.000000
E 17 248 203.000000
E 17 261 204.000000
E 17 266 200.000000
E 17 529 198.000000
E 18 515 204.000000
E 19 64 294.000000
E 20 211 196.000000
E 20 337 195.000000
E 20 436 205.000000
E 21 189 191.000000
E 21 257 204.000000
E 21 524 209.000000
E 21 553 198.000000
E 22 220 198.000000
E 22 505 194.000000
E 22 625 201.000000
E 23 51 306.000000
E 23 113 293.000000
E 24 122 310.000000
E 24 141 303.000000
E 24 464 198.000000
E 24 473 198.000000
E 25 515 202.000000
E 26 96 304.000000
E 26 245 205.000000
E 26 339 207.000000
E 26 340 203.000000
E 26 539 201.000000
E 27 94 297.000000
E 27 309 206.000000
E 28 373 205.000000
E 29 317 195.000000
E 30 108 295.000000
E 30 471 204.000000
E 30 472 194.000000
E 31 182 200.000000
E 31 601 196.000000
E 32 257 200.000000
E 33 427 207.000000
E 34 178 200.000000
E 34 472 191.000000
E 34 540 203.000000
E 34 626 190.000000
E 35 54 289.000000
E 35 428 199.000000
E 36 551 200.000000
E 37 102 303.000000
E 37 159 299.000000
E 37 358 193.000000
E 38 530 200.000000
E 39 96 298.000000
E 39 384 201.000000
E 39 441 192.000000
E 40 80 300.000000
E 40 91 297.000000
E 40 179 193.000000
E 40 490 191.000000
E 40 603 201.000000
E 41 131 286.000000
E 41 298 193.000000
E 41 329 197.000000
E 41 366 192.000000
E 42 585 198.000000
E 42 612 207.000000
E 43 595 206.000000
E 44 79 307.000000
E 44 117 307.000000
E 44 476 202.000000
E 44 619 198.000000
E 45 609 199.000000
E 46 57 295.000000
E 46 563 203.000000
E 47 340 193.000000
E 47 360 196.000000
E 48 248 205.000000
E 48 270 202.000000
E 49 253 194.000000
E 49 411 195.000000
E 49 457 196.000000
E 50 79 296.000000
E 51 230 204.000000
E 51 319 205.000000
E 51 439 200.000000
E 51 581 200.000000
E 52 634 194.000000
E 53 61 299.000000
E 54 93 307.000000
E 54 165 201.000000
E 54 483 202.000000
E 54 520 197.000000
E 55 523 207.000000
E 56 332 196.000000
E 56 459 190.000000
E 57 354 202.000000
E 57 472 204.000000
E 58 227 203.000000
E 58 336 187.000000
E 59 357 201.000000
E 59 448 201.000000
E 60 255 193.000000
E 61 67 304.000000
E 61 202 202.000000
E 61 208 204.000000
E 61 217 204.000000
E 61 599 195.000000
E 61 616 192.000000
E 62 331 201.000000
E 62 461 198.000000
E 62 576 198.000000
E 62 588 199.000000
E 63 119 299.000000
E 63 140 301.000000
E 63 299 196.000000
E 63 491 202.000000
E 63 637 194.000000
E 64 153 301.000000
E 64 164 198.000000
E 64 348 197.000000
E 65 162 199.000000
E 65 235 209.000000
E 65 281 206.000000
E 65 484 199.000000
E 66 616 207.000000
E 68 106 309.000000
E 68 236 201.000000
E 68 250 200.000000
E 68 346 195.000000
E 68 530 201.000000
E 69 398 196.000000
E 69 624 201.000000
E 70 269 198.000000
E 70 598 198.000000
E 71 319 200.000000
E 71 433 199.000000
E 72 81 297.000000
E 72 124 297.000000
E 72 223 198.000000
E 72 496 205.000000
E 73 208 197.000000
E 73 256 200.000000
E 74 142 291.000000
E 75 476 204.000000
E 76 430 201.000000
E 76 432 209.000000
E 76 447 204.000000
E 77 166 198.000000
E 77 259 195.000000
E 77 402 195.000000
E 77 438 193.000000
E 77 564 188.000000
E 78 463 193.000000
E 79 181 198.000000
E 80 214 202.000000
E 80 429 206.000000
E 81 281 201.000000
E 82 99 288.000000
E 82 301 204.000000
E 83 259 196.000000
E 83 272 197.000000
E 84 452 196.000000
E 84 476 194.000000
E 84 601 198.000000
E 85 308 202.000000
E 85 477 200.000000
E 85 484 197.000000
E 86 129 303.000000
E 86 150 294.000000
E 86 155 298.000000
E 87 123 298.000000
E 87 241 206.000000
E 87 438 204.000000
E 87 538 197.000000
E 87 595 188.000000
E 88 124 295.000000
E 88 635 187.000000
E 89 234 200.000000
E 89 462 200.000000
E 89 629 207.000000
E 90 139 297.000000
E 91 224 197.000000
E 91 233 199.000000
E 91 252 200.000000
E 92 196 193.000000
E 92 456 199.000000
E 92 533 202.000000
E 92 554 207.000000
E 92 573 198.000000
E 92 574 195.000000
E 93 120 307.000000
E 93 360 201.000000
E 93 378 202.000000
E 93 384 196.000000
E 93 405 199.000000
E 94 492 204.000000
E 95 121 302.000000
E 95 188 204.000000
E 95 501 202.000000
E 95 506 201.000000
E 96 404 185.000000
E 96 412 197.000000
E 96 512 193.000000
E 97 150 296.000000
E 97 194 193.000000
E 97 255 200.000000
E 98 140 302.000000
E 98 289 203.000000
E 98 309 198.000000
E 98 386 199.000000
E 98 540 205.000000
E 99 118 297.000000
E 99 518 196.000000
E 100 139 303.000000
E 100 239 204.000000
E 101 240 199.000000
E 101 453 203.000000
E 101 585 198.000000
E 102 315 204.000000
E 103 188 206.000000
E 103 240 190.000000
E 103 307 195.000000
E 103 579 200.000000
E 104 163 200.000000
E 104 269 193.000000
E 104 272 199.000000
E 104 276 202.000000
E 105 145 300.000000
E 105 226 200.000000
E 105 270 200.000000
E 105 557 192.000000
E 107 463 203.000000
E 108 139 316.000000
E 108 321 202.000000
E 109 468 198.000000
E 109 553 196.000000
E 110 145 297.000000
E 111 429 201.000000
E 111 501 196.000000
E 111 554 204.000000
E 111 574 199.000000
E 112 365 203.000000
E 112 423 192.000000
E 113 244 189.000000
E 113 331 204.000000
E 113 436 202.000000
E 113 527 206.000000
E 113 552 206.000000
E 114 189 196.000000
E 114 291 200.000000
E 115 200 197.000000
E 115 203 196.000000
E 115 375 196.000000
E 115 380 203.000000
E 115 383 196.000000
E 116 131 306.000000
E 116 142 303.000000
E 116 405 209.000000
E 116 415 200.000000
E 116 505 206.000000
E 117 164 192.000000
E 120 411 198.000000
E 120 628 199.000000
E 121 296 202.000000
E 121 376 196.000000
E 121 476 207.000000
E 123 242 208.000000
E 123 268 203.000000
E 123 421 203.000000
E 123 542 204.000000
E 124 246 194.000000
E 124 525 205.000000
E 125 273 193.000000
E 125 297 189.000000
E 125 389 191.000000
E 125 482 201.000000
E 125 496 207.000000
E 126 405 196.000000
E 126 432 193.000000
E 126 535 190.000000
E 127 258 197.000000
E 127 294 201.000000
E 127 427 205.000000
E 128 228 204.000000
E 128 462 197.000000
E 128 490 198.000000
E 129 504 193.000000
E 129 544 204.000000
E 130 134 299.000000
E 130 214 203.000000
E 130 262 197.000000
E 130 372 198.000000
E 132 356 206.000000
E 132 556 196.000000
E 133 198 206.000000
E 133 285 197.000000
E 133 475 200.000000
E 134 499 203.000000
E 134 596 197.000000
E 135 208 206.000000
E 135 468 193.000000
E 136 212 204.000000
E 137 317 202.000000
E 137 336 198.000000
E 138 458 196.000000
E 138 476 203.000000
E 139 527 204.000000
E 140 505 195.000000
E 140 551 195.000000
E 141 370 190.000000
E 141 436 204.000000
E 141 536 193.000000
E 142 480 195.000000
E 142 614 195.000000
E 143 302 203.000000
E 143 566 194.000000
E 144 624 201.000000
E 145 156 287.000000
E 146 284 197.000000
E 146 292 205.000000
E 146 336 192.000000
E 146 533 197.000000
E 146 568 208.000000
E 147 270 198.000000
E 147 334 202.000000
E 148 169 194.000000
E 148 300 194.000000
E 148 623 191.000000
E 149 304 198.000000
E 149 424 207.000000
E 149 527 206.000000
E 150 242 201.000000
E 150 558 199.000000
E 151 226 201.000000
E 151 360 196.000000
E 151 621 208.000000
E 152 244 199.000000
E 152 357 206.000000
E 152 446 199.000000
E 153 504 202.000000
E 153 568 199.000000
E 154 492 197.000000
E 155 443 197.000000
E 155 457 202.000000
E 156 164 209.000000
E 156 432 192.000000
E 156 511 199.000000
E 156 531 204.000000
E 157 249 199.000000
E 157 336 201.000000
E 158 295 203.000000
E 158 403 207.000000
E 158 486 199.000000
E 159 240 197.000000
E 159 523 199.000000
E 159 528 201.000000
E 159 635 191.000000
E 160 272 202.000000
E 161 233 96.000000
E 161 293 113.000000
E 162 389 100.000000
E 163 172 97.000000
E 163 320 100.000000
E 163 421 106.000000
E 163 458 98.000000
E 164 342 107.000000
E 164 473 104.000000
E 165 201 96.000000
E 165 532 92.000000
E 166 467 105.000000
E 166 581 103.000000
E 167 188 93.000000
E 168 221 106.000000
E 168 612 103.000000
E 169 184 100.000000
E 169 291 106.000000
E 169 570 100.000000
E 170 437 107.000000
E 170 621 105.000000
E 171 466 101.000000
E 171 482 97.000000
E 173 371 96.000000
E 173 461 101.000000
E 174 362 97.000000
E 175 247 96.000000
E 175 447 96.000000
E 175 592 98.000000
E 175 633 96.000000
E 176 181 104.000000
E 177 352 94.000000
E 177 469 97.000000
E 177 477 99.000000
E 178 217 99.000000
E 179 270 96.000000
E 179 382 98.000000
E 180 273 99.000000
E 181 456 99.000000
E 182 474 93.000000
E 183 332 99.000000
E 183 368 97.000000
E 185 197 96.000000
E 185 209 100.000000
E 185 296 99.000000
E 185 466 107.000000
E 186 213 96.000000
E 186 530 99.000000
E 187 374 111.000000
E 187 521 107.000000
E 188 203 97.000000
E 188 279 102.000000
E 188 281 94.000000
E 189 323 90.000000
E 189 479 90.000000
E 191 478 103.000000
E 191 541 93.000000
E 191 581 103.000000
E 191 596 104.000000
E 192 549 108.000000
E 193 255 99.000000
E 194 226 93.000000
E 195 447 97.000000
E 195 451 98.000000
E 198 322 95.000000
E 198 494 99.000000
E 198 632 101.000000
E 199 254 106.000000
E 200 273 98.000000
E 201 225 93.000000
E 202 271 100.000000
E 202 470 103.000000
E 203 491 91.000000
E 204 292 92.000000
E 205 562 96.000000
E 206 376 97.000000
E 206 481 101.000000
E 207 578 95.000000
E 207 635 102.000000
E 208 229 99.000000
E 208 368 104.000000
E 208 508 105.000000
E 209 507 101.000000
E 209 588 95.000000
E 210 279 93.000000
E 210 314 87.000000
E 210 511 99.000000
E 212 621 97.000000
E 212 623 95.000000
E 213 263 106.000000
E 213 303 96.000000
E 213 399 93.000000
E 213 408 101.000000
E 213 565 103.000000
E 214 256 103.000000
E 215 402 103.000000
E 215 542 93.000000
E 216 433 98.000000
E 217 493 99.000000
E 217 611 96.000000
E 218 480 103.000000
E 218 627 100.000000
E 219 387 90.000000
E 219 429 89.000000
E 219 479 98.000000
E 219 497 104.000000
E 219 600 96.000000
E 220 367 103.000000
E 220 405 110.000000
E 221 231 92.000000
E 221 303 96.000000
E 221 378 93.000000
E 221 388 98.000000
E 221 407 101.000000
E 221 447 98.000000
E 221 480 104.000000
E 221 566 93.000000
E 221 634 96.000000
E 222 469 106.000000
E 222 506 105.000000
E 222 562 103.000000
E 222 613 105.000000
E 223 283 96.000000
E 223 366 102.000000
E 223 446 101.000000
E 224 263 94.000000
E 224 384 97.000000
E 224 433 110.000000
E 224 634 95.000000
E 225 264 95.000000
E 225 360 96.000000
E 225 383 103.000000
E 226 287 95.000000
E 226 513 98.000000
E 226 534 102.000000
E 227 466 98.000000
E 227 600 103.000000
E 228 247 94.000000
E 228 406 97.000000
E 228 426 102.000000
E 228 589 94.000000
E 229 597 105.000000
E 231 425 89.000000
E 232 476 101.000000
E 233 441 96.000000
E 234 251 96.000000
E 234 394 89.000000
E 235 385 95.000000
E 236 480 98.000000
E 236 537 98.000000
E 236 626 96.000000
E 237 246 94.000000
E 237 622 102.000000
E 238 553 99.000000
E 239 287 97.000000
E 239 413 108.000000
E 239 571 96.000000
E 241 268 106.000000
E 241 270 100.000000
E 241 328 93.000000
E 241 595 97.000000
E 241 596 101.000000
E 242 329 96.000000
E 242 424 101.000000
E 243 314 103.000000
E 243 372 97.000000
E 243 373 93.000000
E 243 403 91.000000
E 244 339 99.000000
E 244 543 95.000000
E 245 546 105.000000
E 247 361 103.000000
E 248 372 96.000000
E 248 390 105.000000
E 248 500 103.000000
E 248 516 106.000000
E 249 438 97.000000
E 249 474 97.000000
E 250 438 104.000000
E 250 498 101.000000
E 250 546 93.000000
E 250 611 99.000000
E 251 572 109.000000
E 252 339 102.000000
E 252 476 96.000000
E 252 563 103.000000
E 252 585 94.000000
E 252 624 101.000000
E 253 598 99.000000
E 254 621 107.000000
E 255 265 105.000000
E 255 270 102.000000
E 257 322 90.000000
E 257 547 92.000000
E 258 438 106.000000
E 259 279 104.000000
E 260 332 92.000000
E 261 408 107.000000
E 261 612 103.000000
E 262 564 87.000000
E 263 451 107.000000
E 263 454 103.000000
E 263 486 103.000000
E 265 339 108.000000
E 265 433 99.000000
E 265 542 100.000000
E 265 546 96.000000
E 267 326 106.000000
E 267 469 107.000000
E 267 545 109.000000
E 267 559 99.000000
E 268 283 104.000000
E 268 383 99.000000
E 269 331 107.000000
E 269 338 106.000000
E 269 359 100.000000
E 269 418 91.000000
E 269 605 100.000000
E 270 405 99.000000
E 270 545 101.000000
E 271 313 97.000000
E 272 475 103.000000
E 272 487 104.000000
E 272 633 108.000000
E 273 298 99.000000
E 273 303 103.000000
E 273 472 90.000000
E 274 437 103.000000
E 274 590 103.000000
E 275 336 98.000000
E 275 546 104.000000
E 275 620 97.000000
E 277 392 99.000000
E 277 541 107.000000
E 277 638 98.000000
E 277 640 98.000000
E 278 509 92.000000
E 279 326 96.000000
E 279 359 100.000000
E 280 334 110.000000
E 280 395 102.000000
E 280 407 99.000000
E 280 544 101.000000
E 280 599 102.000000
E 282 369 103.000000
E 282 499 109.000000
E 283 616 104.000000
E 285 526 105.000000
E 285 551 99.000000
E 286 451 100.000000
E 287 527 103.000000
E 287 622 100.000000
E 288 557 106.000000
E 289 335 100.000000
E 289 409 98.000000
E 289 617 95.000000
E 290 582 109.000000
E 291 356 101.000000
E 292 497 100.000000
E 293 378 102.000000
E 294 606 95.000000
E 295 549 95.000000
E 295 580 105.000000
E 297 356 97.000000
E 297 490 109.000000
E 298 300 97.000000
E 298 371 93.000000
E 298 516 92.000000
E 298 619 99.000000
E 298 636 110.000000
E 301 330 95.000000
E 301 407 103.000000
E 301 639 99.000000
E 303 489 105.000000
E 304 473 102.000000
E 304 477 89.000000
E 304 504 97.000000
E 304 572 106.000000
E 305 392 102.000000
E 306 346 99.000000
E 308 555 99.000000
E 309 444 101.000000
E 310 473 95.000000
E 310 625 105.000000
E 311 514 91.000000
E 311 519 102.000000
E 312 445 99.000000
E 312 537 100.000000
E 313 413 90.000000
E 314 326 107.000000
E 314 365 92.000000
E 314 420 97.000000
E 314 581 94.000000
E 315 336 100.000000
E 316 570 100.000000
E 317 519 104.000000
E 317 544 102.000000
E 317 571 94.000000
E 318 549 100.000000
E 319 339 103.000000
E 319 496 104.000000
E 320 434 92.000000
E 321 425 97.000000
E 321 599 96.000000
E 321 624 104.000000
E 322 395 107.000000
E 322 410 102.000000
E 323 568 99.000000
E 324 349 100.000000
E 324 572 94.000000
E 324 620 97.000000
E 324 636 101.000000
E 325 392 95.000000
E 325 461 95.000000
E 326 405 100.000000
E 326 429 105.000000
E 326 512 89.000000
E 326 634 101.000000
E 327 499 102.000000
E 328 525 101.000000
E 329 512 101.000000
E 329 581 106.000000
E 330 380 96.000000
E 331 631 99.000000
E 332 593 107.000000
E 333 497 102.000000
E 333 566 97.000000
E 334 521 97.000000
E 334 550 95.000000
E 336 399 92.000000
E 336 533 103.000000
E 336 617 92.000000
E 337 413 97.000000
E 337 609 90.000000
E 338 422 107.000000
E 339 440 110.000000
E 340 353 100.000000
E 340 434 102.000000
E 341 445 98.000000
E 341 500 97.000000
E 342 413 100.000000
E 343 364 103.000000
E 343 380 100.000000
E 343 575 101.000000
E 344 347 99.000000
E 344 568 100.000000
E 344 625 99.000000
E 345 469 97.000000
E 345 538 99.000000
E 346 400 93.000000
E 346 547 107.000000
E 347 387 100.000000
E 347 555 101.000000
E 348 368 93.000000
E 349 419 109.000000
E 349 521 90.000000
E 349 541 112.000000
E 350 497 100.000000
E 350 513 95.000000
E 350 548 108.000000
E 351 357 106.000000
E 352 477 97.000000
E 352 540 106.000000
E 353 378 98.000000
E 353 467 92.000000
E 353 616 102.000000
E 355 528 95.000000
E 357 481 97.000000
E 358 453 100.000000
E 358 605 99.000000
E 359 372 105.000000
E 359 427 99.000000
E 359 504 107.000000
E 359 555 101.000000
E 359 570 97.000000
E 360 423 92.000000
E 362 397 103.000000
E 363 611 99.000000
E 364 391 103.000000
E 365 427 102.000000
E 365 498 99.000000
E 367 461 101.000000
E 367 514 100.000000
E 368 425 102.000000
E 368 455 107.000000
E 368 522 99.000000
E 369 413 97.000000
E 371 486 97.000000
E 371 490 102.000000
E 372 391 101.000000
E 372 411 103.000000
E 372 616 104.000000
E 373 398 97.000000
E 374 567 97.000000
E 374 616 95.000000
E 375 481 102.000000
E 375 608 98.000000
E 376 427 103.000000
E 377 457 98.000000
E 378 414 98.000000
E 378 445 99.000000
E 379 428 95.000000
E 379 570 97.000000
E 380 621 95.000000
E 381 504 110.000000
E 381 625 105.000000
E 382 622 102.000000
E 383 587 98.000000
E 383 603 103.000000
E 384 503 93.000000
E 385 420 99.000000
E 385 539 100.000000
E 386 396 102.000000
E 388 393 101.000000
E 391 410 104.000000
E 391 530 97.000000
E 392 503 95.000000
E 393 405 104.000000
E 393 539 106.000000
E 394 429 98.000000
E 394 581 99.000000
E 395 452 97.000000
E 396 579 103.000000
E 397 469 101.000000
E 397 559 95.000000
E 398 529 96.000000
E 398 540 94.000000
E 399 409 97.000000
E 400 536 92.000000
E 401 410 101.000000
E 402 541 95.000000
E 402 554 96.000000
E 403 413 103.000000
E 406 510 98.000000
E 406 624 98.000000
E 410 469 101.000000
E 415 459 96.000000
E 415 629 100.000000
E 416 427 107.000000
E 416 474 97.000000
E 417 633 90.000000
E 418 513 104.000000
E 418 604 99.000000
E 419 528 94.000000
E 420 450 102.000000
E 422 427 101.000000
E 424 459 97.000000
E 424 609 93.000000
E 425 500 100.000000
E 426 518 108.000000
E 429 453 95.000000
E 429 476 99.000000
E 429 533 97.000000
E 429 553 101.000000
E 429 571 92.000000
E 429 621 97.000000
E 430 581 103.000000
E 431 594 100.000000
E 433 449 102.000000
E 435 466 111.000000
E 435 605 97.000000
E 436 599 97.000000
E 439 532 105.000000
E 442 619 100.000000
E 443 566 106.000000
E 443 617 94.000000
E 444 595 96.000000
E 445 469 105.000000
E 446 455 99.000000
E 446 620 103.000000
E 447 511 94.000000
E 447 567 103.000000
E 447 597 107.000000
E 447 612 101.000000
E 450 555 95.000000
E 451 613 101.000000
E 453 552 104.000000
E 454 547 105.000000
E 454 577 101.000000
E 457 627 102.000000
E 458 616 96.000000
E 458 623 99.000000
E 460 525 93.000000
E 462 563 96.000000
E 462 585 102.000000
E 463 570 100.000000
E 465 490 96.000000
E 467 565 105.000000
E 468 515 96.000000
E 469 504 97.000000
E 470 501 97.000000
E 471 475 95.000000
E 472 532 105.000000
E 474 602 97.000000
E 476 556 99.000000
E 477 519 107.000000
E 484 556 103.000000
E 485 552 106.000000
E 488 555 110.000000
E 489 534 99.000000
E 489 640 100.000000
E 492 634 92.000000
E 493 495 106.000000
E 494 593 105.000000
E 496 517 103.000000
E 496 553 95.000000
E 496 556 96.000000
E 496 591 96.000000
E 496 632 102.000000
E 498 551 105.000000
E 498 593 102.000000
E 498 612 103.000000
E 499 527 92.000000
E 499 566 97.000000
E 499 607 104.000000
E 500 501 98.000000
E 502 608 98.000000
E 503 578 96.000000
E 505 579 100.000000
E 508 640 102.000000
E 509 522 100.000000
E 511 633 97.000000
E 513 546 98.000000
E 522 558 97.000000
E 523 582 104.000000
E 524 540 98.000000
E 529 560 104.000000
E 530 613 91.000000
E 533 569 105.000000
E 533 602 97.000000
E 539 605 100.000000
E 543 606 105.000000
E 548 608 97.000000
E 552 578 92.000000
E 552 584 104.000000
E 555 586 105.000000
E 556 627 98.000000
E 559 584 93.000000
E 561 567 105.000000
E 561 598 96.000000
E 561 599 96.000000
E 563 579 93.000000
E 564 587 96.000000
E 565 613 101.000000
E 570 608 92.000000
E 570 637 107.000000
E 578 583 95.000000
E 584 601 104.000000
E 584 606 96.000000
E 588 630 90.000000
E 594 624 99.000000
E 602 610 105.000000
E 607 618 106.000000
E 615 629 100.000000
E 621 640 100.000000
END

SECTION Terminals
Terminals 160
TP 1 744.000000
TP 2 1180.000000
TP 3 176.000000
TP 4 920.000000
TP 5 1048.000000
TP 6 528.000000
TP 7 1204.000000
TP 8 920.000000
TP 9 1128.000000
TP 10 140.000000
TP 11 28.000000
TP 12 1156.000000
TP 13 232.000000
TP 14 596.000000
TP 15 1088.000000
TP 16 508.000000
TP 17 216.000000
TP 18 220.000000
TP 19 644.000000
TP 20 372.000000
TP 21 840.000000
TP 22 676.000000
TP 23 1180.000000
TP 24 272.000000
TP 25 1196.000000
TP 26 116.000000
TP 27 796.000000
TP 28 728.000000
TP 29 464.000000
TP 30 240.000000
TP 31 1104.000000
TP 32 868.000000
TP 33 96.000000
TP 34 340.000000
TP 35 1008.000000
TP 36 1180.000000
TP 37 756.000000
TP 38 324.000000
TP 39 1092.000000
TP 40 336.000000
TP 41 680.000000
TP 42 860.000000
TP 43 608.000000
TP 44 120.000000
TP 45 980.000000
TP 46 596.000000
TP 47 828.000000
TP 48 56.000000
TP 49 588.000000
TP 50 628.000000
TP 51 696.000000
TP 52 1200.000000
TP 53 388.000000
TP 54 896.000000
TP 55 308.000000
TP 56 1012.000000
TP 57 388.000000
TP 58 24.000000
TP 59 784.000000
TP 60 1156.000000
TP 61 256.000000
TP 62 236.000000
TP 63 680.000000
TP 64 160.000000
TP 65 80.000000
TP 66 256.000000
TP 67 1176.000000
TP 68 960.000000
TP 69 228.000000
TP 70 168.000000
TP 71 1092.000000
TP 72 956.000000
TP 73 1100.000000
TP 74 1132.000000
TP 75 1024.000000
TP 76 1260.000000
TP 77 592.000000
TP 78 420.000000
TP 79 928.000000
TP 80 1148.000000
TP 81 104.000000
TP 82 752.000000
TP 83 1128.000000
TP 84 708.000000
TP 85 120.000000
TP 86 40.000000
TP 87 316.000000
TP 88 248.000000
TP 89 368.000000
TP 90 1164.000000
TP 91 632.000000
TP 92 1096.000000
TP 93 72.000000
TP 94 1180.000000
TP 95 784.000000
TP 96 880.000000
TP 97 1220.000000
TP 98 968.000000
TP 99 884.000000
TP 100 376.000000
TP 101 704.000000
TP 102 532.000000
TP 103 872.000000
TP 104 292.000000
TP 105 1152.000000
TP 106 500.000000
TP 107 620.000000
TP 108 340.000000
TP 109 936.000000
TP 110 500.000000
TP 111 556.000000
TP 112 1148.000000
TP 113 512.000000
TP 114 1212.000000
TP 115 1148.000000
TP 116 276.000000
TP 117 1172.000000
TP 118 220.000000
TP 119 1232.000000
TP 120 356.000000
TP 121 384.000000
TP 122 1172.000000
TP 123 1064.000000
TP 124 60.000000
TP 125 296.000000
TP 126 976.000000
TP 127 1140.000000
TP 128 1220.000000
TP 129 216.000000
TP 130 132.000000
TP 131 1096.000000
TP 132 60.000000
TP 133 228.000000
TP 134 56.000000
TP 135 1016.000000
TP 136 852.000000
TP 137 724.000000
TP 138 484.000000
TP 139 480.000000
TP 140 1076.000000
TP 141 232.000000
TP 142 1164.000000
TP 143 1048.000000
TP 144 1156.000000
TP 145 648.000000
TP 146 516.000000
TP 147 1224.000000
TP 148 84.000000
TP 149 124.000000
TP 150 440.000000
TP 151 692.000000
TP 152 1060.000000
TP 153 964.000000
TP 154 332.000000
TP 155 168.000000
TP 156 244.000000
TP 157 160.000000
TP 158 944.000000
TP 159 564.000000
TP 160 520.000000
END

EOF
